# Synthetic RCP for GISMO 
1	1.0	1.0	-111.3	-135.3
2	1.0	1.0	-117.5	-127.2
3	1.0	1.0	-123.6	-119.1
4	1.0	1.0	-129.8	-111.1
5	1.0	1.0	-136.0	-103.2
6	1.0	1.0	-142.1	-95.3
7	1.0	1.0	-148.3	-87.5
8	1.0	1.0	-154.5	-79.7
9	0.122	1.0	-97.1	-122.2
10	0.141	1.0	-103.2	-114.1
11	0.128	1.0	-109.4	-106.1
12	1.0	1.0	-115.5	-98.1
13	1.0	1.0	-121.7	-90.1
14	0.042	1.0	-127.9	-82.3
15	0.099	1.0	-134.1	-74.4
16	0.19	1.0	-140.2	-66.6
17	1.0	1.0	-82.7	-109.3
18	0.081	1.0	-88.9	-101.2
19	0.113	1.0	-95.0	-93.2
20	1.0	1.0	-101.2	-85.2
21	1.0	1.0	-107.4	-77.2
22	0.405	1.0	-113.5	-69.3
23	0.385	1.0	-119.7	-61.5
24	0.367	1.0	-125.9	-53.7
25	0.76	1.0	-68.2	-96.5
26	0.711	1.0	-74.4	-88.4
27	0.635	1.0	-80.6	-80.4
28	1.0	1.0	-86.7	-72.4
29	0.526	1.0	-92.9	-64.5
30	0.625	1.0	-99.1	-56.6
31	0.608	1.0	-105.2	-48.8
32	1.0	1.0	-111.4	-41.0
33	1.0	1.0	-53.7	-83.9
34	0.907	1.0	-59.8	-75.9
35	0.969	1.0	-66.0	-67.8
36	0.859	1.0	-72.1	-59.8
37	1.0	1.0	-78.3	-51.9
38	0.913	1.0	-84.5	-44.0
39	0.794	1.0	-90.6	-36.2
40	0.788	1.0	-96.8	-28.4
41	1.333	1.0	-38.9	-71.5
42	1.191	1.0	-45.1	-63.4
43	1.201	1.0	-51.3	-55.4
44	1.072	1.0	-57.4	-47.4
45	0.947	1.0	-63.6	-39.5
46	1.192	1.0	-69.8	-31.6
47	1.071	1.0	-75.9	-23.7
48	1.0	1.0	-82.1	-15.9
49	1.422	1.0	-24.1	-59.2
50	1.394	1.0	-30.3	-51.1
51	1.0	1.0	-36.4	-43.1
52	1.041	1.0	-42.6	-35.1
53	1.182	1.0	-48.8	-27.2
54	1.254	1.0	-54.9	-19.3
55	1.0	1.0	-61.1	-11.4
56	1.022	1.0	-67.3	-3.7
57	1.874	1.0	-9.2	-47.1
58	1.215	1.0	-15.3	-39.0
59	1.427	1.0	-21.5	-31.0
60	1.409	1.0	-27.7	-23.0
61	1.212	1.0	-33.8	-15.0
62	1.452	1.0	-40.0	-7.2
63	1.242	1.0	-46.2	0.7
64	1.093	1.0	-52.4	8.5
65	1.185	1.0	5.9	-35.1
66	1.223	1.0	-0.3	-27.0
67	1.0	1.0	-6.4	-19.0
68	1.0	1.0	-12.6	-11.0
69	1.229	1.0	-18.8	-3.1
70	1.0	1.0	-24.9	4.8
71	1.0	1.0	-31.1	12.7
72	1.0	1.0	-37.3	20.4
73	1.169	1.0	21.1	-23.3
74	1.0	1.0	14.9	-15.2
75	1.149	1.0	8.7	-7.2
76	1.0	1.0	2.6	0.8
77	1.435	1.0	-3.6	8.7
78	1.0	1.0	-9.8	16.6
79	1.0	1.0	-15.9	24.5
80	1.0	1.0	-22.1	32.3
81	1.0	1.0	36.4	-11.7
82	1.0	1.0	30.2	-3.6
83	1.139	1.0	24.0	4.5
84	1.215	1.0	17.9	12.5
85	1.0	1.0	11.7	20.4
86	1.0	1.0	5.5	28.3
87	1.0	1.0	-0.6	36.1
88	2.02	1.0	-6.8	43.9
89	1.0	1.0	51.8	-0.1
90	1.0	1.0	45.6	7.9
91	1.112	1.0	39.5	16.0
92	1.0	1.0	33.3	24.0
93	1.371	1.0	27.1	31.9
94	1.58	1.0	21.0	39.8
95	1.624	1.0	14.8	47.6
96	1.0	1.0	8.6	55.4
97	1.0	1.0	67.3	11.2
98	0.921	1.0	61.1	19.3
99	0.913	1.0	55.0	27.3
100	0.841	1.0	48.8	35.3
101	1.0	1.0	42.7	43.2
102	1.192	1.0	36.5	51.1
103	1.0	1.0	30.3	59.0
104	1.0	1.0	24.1	66.8
105	0.856	1.0	82.9	22.4
106	0.837	1.0	76.8	30.5
107	0.805	1.0	70.6	38.5
108	1.0	1.0	64.5	46.5
109	1.037	1.0	58.3	54.4
110	1.118	1.0	52.1	62.3
111	0.968	1.0	46.0	70.2
112	1.0	1.0	39.8	77.9
113	0.558	1.0	98.7	33.4
114	0.597	1.0	92.6	41.5
115	0.569	1.0	86.4	49.5
116	0.522	1.0	80.2	57.5
117	0.643	1.0	74.1	65.5
118	0.734	1.0	67.9	73.4
119	1.146	1.0	61.7	81.2
120	0.672	1.0	55.5	89.0
121	0.165	1.0	114.6	44.3
122	0.186	1.0	108.4	52.4
123	0.197	1.0	102.3	60.4
124	0.184	1.0	96.1	68.4
125	0.249	1.0	89.9	76.3
126	0.272	1.0	83.8	84.2
127	0.262	1.0	77.6	92.1
128	0.258	1.0	71.4	99.9
